mydata.dzn
rows = 5;
cols = 15;
cost = 
[|15,17,23,10,13,3,22,23,28,7,16,22,7,17,27,
|8,16,30,1,18,15,26,11,15,14,9,10,10,21,4,
|5,10,16,25,6,22,22,29,3,8,21,21,22,21,2,
|5,22,30,25,7,7,14,17,25,27,14,28,29,5,29,
|23,16,14,13,6,5,29,13,2,13,12,30,20,11,1,
|]
K = 
[1 3 3 4 4 ]
END