monogamy/mydata.txt
5
15
17 23 14 21 23 19 5 12 5 18 2 25 8 12 10 
3 21 12 29 29 5 8 13 30 12 9 4 28 26 3 
21 18 2 21 28 29 19 28 10 21 18 27 23 21 23 
24 12 25 20 10 7 23 4 5 3 29 15 13 13 12 
13 26 12 13 7 22 6 15 29 23 5 26 16 14 12 
2 2 7 2 2 
END